! B3LYP def2-SVP Opt Freq TightSCF

* xyz 0 1
O   -1.160000   0.000000   0.000000
C    0.000000   0.000000   0.000000
O    1.160000   0.000000   0.000000
*
