! B3LYP def2-SVP Opt Freq TightSCF

* xyz 0 1
O    0.000000    0.000000    0.000000
H    0.757000    0.586000    0.000000
H   -0.757000    0.586000    0.000000
*
