! B3LYP def2-SVP Opt Freq TightSCF

* xyz 0 1
C    0.000000    0.000000    0.000000
H    0.629118    0.629118    0.629118
H   -0.629118   -0.629118    0.629118
H   -0.629118    0.629118   -0.629118
H    0.629118   -0.629118   -0.629118
*
